(declare-fun $V92_X$3 () Bool)
(declare-fun $V28_speed$3 () Int)
(declare-fun $OK$3 () Bool)
(declare-fun $V33_env$0 () Bool)
(declare-fun $V27_dist$3 () Int)
(declare-fun $m$1 () Bool)
(declare-fun $V33_env$3 () Bool)
(declare-fun $s$1 () Bool)

(assert (let ((a!1 (and $V33_env$0 (and (not (and $m$1 $s$1)) (< 10 32767))))
      (a!3 (= $V92_X$3 (and (not (and $m$1 $s$1)) (< 10 32767)))))
(let ((a!2 (= $OK$3 (or (not a!1) (and (>= 0 0) (>= 10 0) (< 10 11) (< 0 4))))))
(let ((a!4 (and a!2
                (= $V33_env$3 a!1)
                (= $V27_dist$3 10)
                (= $V28_speed$3 0)
                a!3)))
  (ite (or (not $m$1) (not $s$1)) a!4 (ite (and $m$1 $s$1) a!4 true))))))
(check-sat)
